0	178	90	111	91	41	108	51	61	97	113	
117	0	117	199	90	152	46	39	171	163	176	
186	58	0	168	120	93	82	89	189	188	30	
185	84	125	0	42	182	96	174	158	108	71	
195	77	56	89	0	128	164	87	195	120	31	
34	100	114	195	61	0	106	175	86	172	52	
189	61	82	37	113	31	0	61	148	80	152	
76	51	196	98	71	87	178	0	181	80	59	
81	46	31	171	62	54	38	147	0	55	108	
72	61	172	189	125	43	188	49	87	0	188	
35	49	52	91	200	26	89	62	40	102	0	
